p edge 25 38
e 1 12
e 1 17
e 1 24
e 1 25
e 2 12
e 2 22
e 2 24
e 3 6
e 3 9
e 3 17
e 4 9
e 4 25
e 5 13
e 5 14
e 5 15
e 6 7
e 6 11
e 6 13
e 7 8
e 7 9
e 7 15
e 8 12
e 8 18
e 9 15
e 9 24
e 10 17
e 10 18
e 10 20
e 10 25
e 11 17
e 14 18
e 15 22
e 16 18
e 17 23
e 19 20
e 19 23
e 20 22
e 22 25
